(declare-fun temp914_1 () (_ BitVec 64))
(declare-fun temp914_2 () (_ BitVec 64))
(declare-fun var1511466 () (_ BitVec 64))
(declare-fun k!0 () Bool)
(declare-fun ARGNAME_input_NAMEEND_DIM () (_ BitVec 64))
(declare-fun temp914_4 () (_ BitVec 64))
(declare-fun temp914_3 () (_ BitVec 64))
(declare-fun temp914_5 () (_ BitVec 64))
(declare-fun var2101558 () (_ BitVec 64))
(declare-fun temp914_7 () (_ BitVec 64))
(declare-fun temp914_6 () (_ BitVec 64))
(declare-fun temp914_8 () (_ BitVec 64))
(declare-fun var2625846 () (_ BitVec 64))
(declare-fun var2691393 () (_ BitVec 64))
(declare-fun temp914_10 () (_ BitVec 64))
(declare-fun temp914_9 () (_ BitVec 64))
(declare-fun temp914_11 () (_ BitVec 64))
(declare-fun var3215670 () (_ BitVec 64))
(declare-fun var3281217 () (_ BitVec 64))
(declare-fun temp914_12 () (_ BitVec 64))
(declare-fun var3806954 () (_ BitVec 64))
(declare-fun var3806938 () (_ BitVec 64))
(declare-fun var3022264 () (_ BitVec 64))
(declare-fun temp914_15 () (_ BitVec 64))
(declare-fun temp914_14 () (_ BitVec 64))
(declare-fun temp914_16 () (_ BitVec 64))
(declare-fun var4329782 () (_ BitVec 64))
(declare-fun var4395329 () (_ BitVec 64))
(declare-fun temp914_17 () (_ BitVec 64))
(declare-fun var3018596 () (_ BitVec 64))
(declare-fun temp914_19 () (_ BitVec 64))
(declare-fun temp914_18 () (_ BitVec 64))
(declare-fun temp914_21 () (_ BitVec 64))
(declare-fun temp914_20 () (_ BitVec 64))
(declare-fun temp914_23 () (_ BitVec 64))
(declare-fun temp914_22 () (_ BitVec 64))
(declare-fun temp914_25 () (_ BitVec 64))
(declare-fun temp914_24 () (_ BitVec 64))
(declare-fun temp914_27 () (_ BitVec 64))
(declare-fun temp914_26 () (_ BitVec 64))
(declare-fun temp914_29 () (_ BitVec 64))
(declare-fun temp914_28 () (_ BitVec 64))
(declare-fun temp914_31 () (_ BitVec 64))
(declare-fun temp914_30 () (_ BitVec 64))
(declare-fun temp914_33 () (_ BitVec 64))
(declare-fun temp914_32 () (_ BitVec 64))
(declare-fun temp914_35 () (_ BitVec 64))
(declare-fun temp914_34 () (_ BitVec 64))
(declare-fun temp914_37 () (_ BitVec 64))
(declare-fun temp914_36 () (_ BitVec 64))
(declare-fun temp914_38 () (_ BitVec 64))
(declare-fun var3021829 () (_ BitVec 64))
(declare-fun temp914_40 () (_ BitVec 64))
(declare-fun temp914_39 () (_ BitVec 64))
(declare-fun temp914_42 () (_ BitVec 64))
(declare-fun temp914_41 () (_ BitVec 64))
(declare-fun temp914_44 () (_ BitVec 64))
(declare-fun temp914_43 () (_ BitVec 64))
(declare-fun temp914_46 () (_ BitVec 64))
(declare-fun temp914_45 () (_ BitVec 64))
(declare-fun temp914_48 () (_ BitVec 64))
(declare-fun temp914_47 () (_ BitVec 64))
(declare-fun temp914_50 () (_ BitVec 64))
(declare-fun temp914_49 () (_ BitVec 64))
(declare-fun temp914_52 () (_ BitVec 64))
(declare-fun temp914_51 () (_ BitVec 64))
(assert (= temp914_1 #x0000000000000040))
(assert (= var1511466
   (ite (bvsgt ARGNAME_input_NAMEEND_DIM temp914_1)
        #x0000000000000001
        #x0000000000000000)))
(assert (= temp914_2 #x0000000000000000))
(assert (= var1511466 temp914_2))
(assert (= temp914_4 #x0000000000000000))
(assert (= temp914_3 temp914_4))
(assert (= temp914_5 #x0000000000000000))
(assert (= var2101558 temp914_5))
(assert (= temp914_7 #x0000000000000000))
(assert (= temp914_6 temp914_7))
(assert (= temp914_8 #x0000000000000000))
(assert (= var2625846 temp914_8))
(assert (= var2691393 var2625846))
(assert (= temp914_10 #x0000000000000000))
(assert (= temp914_9 temp914_10))
(assert (= temp914_11 #x0000000000000000))
(assert (= var3215670 temp914_11))
(assert (= var3281217 var3215670))
(assert (= temp914_12 #x0000000000000000))
(assert (= var3806954 temp914_12))
(assert (= var3806938 var3806954))
(assert (= var3022264 var3806938))
(assert (= temp914_15 #x0000000000000000))
(assert (= temp914_14 temp914_15))
(assert (= temp914_16 #x0000000000000000))
(assert (= var4329782 temp914_16))
(assert (= var4395329 var4329782))
(assert (= temp914_17 #x0000000000000001))
(assert (= var3018596 temp914_17))
(assert (= temp914_19 #x0000000000000001))
(assert (= temp914_18 temp914_19))
(assert (= temp914_21 #xffffffffffffffff))
(assert (= temp914_20 temp914_21))
(assert (= temp914_23 #x0000000000000000))
(assert (= temp914_22 temp914_23))
(assert (= temp914_25 #xffffffffffffffff))
(assert (= temp914_24 temp914_25))
(assert (= temp914_27 #x0000000000000001))
(assert (= temp914_26 temp914_27))
(assert (= temp914_29 #x0000000000000000))
(assert (= temp914_28 temp914_29))
(assert (= temp914_31 #xfffffffffffffffe))
(assert (= temp914_30 temp914_31))
(assert (= temp914_33 #x0000000000000001))
(assert (= temp914_32 temp914_33))
(assert (= temp914_35 #xffffffffffffffff))
(assert (= temp914_34 temp914_35))
(assert (= temp914_37 #x0000000000000002))
(assert (= temp914_36 temp914_37))
(assert (= temp914_38 #x0000000000000001))
(assert (or false (= var3021829 temp914_38)))
(assert (= temp914_40 #x0000000000000001))
(assert (= temp914_39 temp914_40))
(assert (= temp914_42 #x0000000000000002))
(assert (= temp914_41 temp914_42))
(assert (= temp914_44 #x0000000000000000))
(assert (= temp914_43 temp914_44))
(assert (= temp914_46 #x0000000000000001))
(assert (= temp914_45 temp914_46))
(assert (= temp914_48 #xffffffffffffffff))
(assert (= temp914_47 temp914_48))
(assert (= temp914_50 #xfffffffffffffffe))
(assert (= temp914_49 temp914_50))
(assert (= temp914_52 #xffffffffffffffff))
(assert (= temp914_51 temp914_52))
(model-add temp914_1 () (_ BitVec 64) #x0000000000000040)
(model-add temp914_2 () (_ BitVec 64) #x0000000000000000)
(model-add var1511466 () (_ BitVec 64) #x0000000000000000)
(model-del k!0)
(model-add ARGNAME_input_NAMEEND_DIM
           ()
           (_ BitVec 64)
           (ite (or k!0 (= #x0000000000000040 #x7fffffffffffffff))
                #x0000000000000040
                (bvadd #x0000000000000040 #x0000000000000001)))






